VALUE 311
12 39
12 13
39 64
64 88
81 82
82 83
83 84
84 85
85 86
86 87
87 88
88 89
104 105
105 106
106 107
81 107
89 114
114 115
115 116
116 117
117 118
118 119
119 120
120 121
121 122
107 132
122 146
132 156
156 157
157 158
158 159
159 160
160 161
161 162
146 170
170 171
156 181
171 195
195 219
219 220
220 221
221 222
222 223

